num_tasks=92;
num_machines=3;
comp_cost=[|0, 0, 0, 
|79, 59, 78,
|102, 122, 79,
|148, 50, 94,
|92, 119, 57,
|107, 140, 73,
|143, 98, 107,
|88, 146, 118,
|95, 71, 50,
|101, 95, 65,
|66, 63, 85,
|108, 133, 98,
|107, 102, 85,
|106, 71, 73,
|142, 52, 145,
|70, 113, 73,
|84, 78, 70,
|52, 55, 104,
|72, 149, 110,
|65, 107, 96,
|125, 105, 55,
|130, 95, 102,
|80, 98, 133,
|148, 84, 112,
|119, 132, 57,
|124, 120, 129,
|138, 76, 110,
|69, 71, 66,
|73, 126, 103,
|88, 101, 103,
|135, 75, 85,
|75, 107, 115,
|61, 147, 83,
|115, 123, 75,
|57, 50, 54,
|107, 93, 126,
|128, 127, 58,
|142, 76, 65,
|56, 95, 96,
|121, 139, 130,
|66, 59, 106,
|112, 77, 85,
|126, 137, 87,
|122, 145, 112,
|64, 116, 132,
|128, 82, 125,
|76, 86, 142,
|132, 116, 81,
|110, 94, 52,
|125, 141, 54,
|81, 143, 119,
|81, 88, 51,
|74, 81, 92,
|52, 133, 66,
|119, 105, 127,
|95, 117, 51,
|147, 63, 138,
|93, 51, 99,
|122, 91, 107,
|64, 116, 136,
|92, 85, 74,
|77, 106, 73,
|140, 144, 93,
|80, 80, 139,
|126, 67, 106,
|120, 148, 91,
|133, 136, 142,
|127, 57, 135,
|85, 95, 143,
|117, 94, 124,
|111, 125, 87,
|113, 83, 84,
|100, 134, 57,
|80, 137, 66,
|82, 69, 86,
|94, 119, 118,
|107, 56, 79,
|61, 74, 122,
|137, 113, 60,
|87, 129, 121,
|88, 98, 67,
|126, 70, 89,
|99, 99, 114,
|113, 66, 52,
|114, 108, 129,
|102, 77, 141,
|95, 88, 98,
|149, 104, 88,
|129, 121, 52,
|56, 88, 128,
|112, 119, 55,
|0, 0, 0|];
comm_cost=[|0,0,0,0,0,0,0,0,0,0,0,0,0,0,0,0,0,0,0,0,0,0,0,0,0,0,0,0,0,0,0,0,0,0,0,0,0
,0,0,0,0,0,0,0,0,0,0,0,0,0,0,0,0,0,0,0,0,0,0,0,0,0,0,0,0,0,0,0,0,0,0,0,0,0
,0,0,0,0,0,0,0,0,0,0,0,0,0,0,0,0,0,0,
|0,0,80,79,134,75,143,66,99,104,88,69,77,54,129,140,123,119
,125,57,75,137,120,139,79,75,101,64,71,61,140,81,88,77,109,95
,61,145,52,132,71,96,98,80,0,0,0,0,0,0,0,0,0,0
,0,0,0,0,0,0,0,0,0,0,0,0,0,0,0,0,0,0
,0,0,0,0,0,0,0,0,0,0,0,0,0,0,0,0,0,0
,0,0,
|0,0,0,138,52,0,0,136,0,0,76,0,146,68,0,0,0,0
,0,138,0,53,53,69,0,128,122,0,130,133,0,0,82,0,0,68
,0,0,113,0,0,0,85,0,119,143,65,136,103,121,102,106,135,108
,121,101,116,140,132,119,62,67,123,77,144,0,0,0,0,0,0,0
,0,0,0,0,0,0,0,0,0,0,0,0,0,0,0,0,0,0
,0,0,
|0,0,0,0,74,0,0,0,138,72,129,58,80,85,116,132,0,62
,139,0,92,0,0,0,98,66,0,129,0,0,0,142,0,102,0,0
,0,0,0,0,95,0,134,104,0,69,96,131,61,0,0,64,88,102
,0,133,58,0,79,98,102,146,0,0,0,81,93,84,93,71,83,93
,0,0,0,136,0,140,0,141,63,123,62,135,51,0,0,0,0,0
,0,0,
|0,0,0,0,0,0,0,51,0,82,0,148,0,0,0,144,116,138
,116,102,122,83,126,131,60,130,0,0,61,109,63,0,62,81,0,0
,111,54,57,0,89,51,0,63,0,67,113,54,50,144,0,103,99,119
,95,0,0,0,131,0,0,0,0,0,0,0,83,110,0,0,114,63
,0,0,77,0,0,90,146,84,98,0,0,53,73,70,94,65,0,0
,0,0,
|0,0,0,0,0,0,0,74,97,0,0,0,0,98,149,0,0,66
,146,0,0,147,130,81,0,113,0,0,0,0,115,100,0,0,130,0
,56,55,87,145,81,148,0,0,0,0,148,95,0,0,93,0,57,0
,0,0,120,0,147,103,0,0,143,0,82,0,0,133,132,58,61,82
,0,149,55,57,94,0,0,98,78,0,117,0,0,79,103,92,69,0
,0,0,
|0,0,0,0,0,0,0,0,116,105,0,96,0,97,65,148,67,133
,78,0,112,136,0,123,70,0,0,0,120,103,0,70,0,0,71,144
,110,58,0,125,112,0,0,73,0,0,0,55,119,0,0,0,0,0
,105,109,0,0,0,0,0,74,91,102,0,0,132,0,88,0,71,86
,58,0,0,0,0,52,0,0,0,0,107,74,73,0,137,80,65,0
,118,0,
|0,0,0,0,0,0,0,0,140,0,0,0,0,147,144,137,122,0
,0,0,85,0,125,0,119,148,71,71,89,68,125,55,0,0,0,0
,99,0,133,0,0,129,70,80,0,0,98,111,0,75,0,0,0,121
,0,0,0,81,0,66,77,0,0,0,0,0,0,0,0,0,0,0
,0,0,0,136,0,143,68,0,0,0,0,0,0,0,0,0,0,0
,67,0,
|0,0,0,0,0,0,0,0,0,129,110,70,0,77,93,92,0,0
,88,94,72,54,0,0,0,0,0,0,0,139,0,114,0,0,88,123
,0,0,0,0,0,64,0,80,0,0,0,0,55,142,56,0,52,75
,145,0,0,0,64,92,99,0,0,96,110,0,0,0,108,0,0,71
,115,0,0,0,0,0,0,98,0,121,0,0,0,0,79,95,51,0
,140,0,
|0,0,0,0,0,0,0,0,0,0,87,56,0,81,0,91,0,86
,55,0,118,0,141,0,67,0,87,55,124,95,0,126,117,0,0,124
,137,112,0,0,64,0,0,0,0,0,0,76,142,86,140,95,108,0
,70,127,130,85,65,0,75,0,0,0,146,0,0,89,0,121,101,135
,0,54,101,125,147,0,0,0,0,0,0,85,0,0,117,140,82,52
,77,0,
|0,0,0,0,0,0,0,0,0,0,0,70,91,96,101,0,118,141
,0,0,56,88,0,0,81,0,116,61,0,0,95,0,0,109,0,66
,131,0,75,75,0,131,0,71,0,0,0,129,0,129,75,0,145,97
,0,86,84,0,107,0,0,58,0,0,0,0,0,0,88,68,63,130
,103,128,129,148,0,87,0,0,0,133,0,116,0,0,0,0,0,0
,0,0,
|0,0,0,0,0,0,0,0,0,0,0,0,0,0,122,0,0,56
,0,0,91,0,57,0,111,0,138,0,84,0,120,74,52,0,0,53
,57,77,0,0,136,0,78,0,0,0,0,0,0,88,69,0,0,133
,124,122,76,105,101,0,134,0,0,71,0,0,0,0,0,0,0,125
,0,147,0,0,137,0,55,0,0,112,0,145,94,70,84,0,111,91
,0,0,
|0,0,0,0,0,0,0,0,0,0,0,0,0,0,77,148,74,0
,141,0,110,0,111,0,0,0,0,0,94,0,144,0,127,0,0,67
,0,122,0,126,143,0,120,62,0,0,0,0,149,0,0,96,0,96
,0,0,0,107,112,135,82,50,131,89,0,0,0,0,0,111,139,79
,0,145,0,112,0,0,51,0,0,79,90,99,0,0,0,0,0,136
,0,0,
|0,0,0,0,0,0,0,0,0,0,0,0,0,0,0,121,73,71
,0,0,110,0,80,68,123,0,0,112,0,0,0,0,0,0,0,0
,138,0,120,99,52,98,98,0,0,0,0,0,0,148,0,134,133,0
,0,109,0,143,72,0,0,93,0,91,0,0,0,0,0,117,0,0
,0,127,0,133,0,0,140,128,0,0,88,89,0,0,90,0,0,88
,0,0,
|0,0,0,0,0,0,0,0,0,0,0,0,0,0,0,70,0,65
,136,0,0,0,0,0,111,94,77,0,84,0,131,0,0,89,0,60
,110,0,0,0,121,124,72,0,0,0,0,0,0,132,0,72,136,0
,50,64,0,0,0,0,0,114,0,0,119,0,0,0,0,145,55,74
,74,0,71,65,0,95,0,147,0,60,0,141,65,142,94,95,0,63
,61,0,
|0,0,0,0,0,0,0,0,0,0,0,0,0,0,0,0,142,65
,117,136,90,63,110,0,0,75,149,0,0,71,0,103,0,0,0,109
,0,136,118,0,0,0,56,105,0,0,0,0,0,0,112,61,0,77
,0,0,0,0,0,0,0,61,107,0,0,0,0,0,0,0,50,0
,0,66,62,120,126,0,130,0,0,0,145,0,133,147,0,143,0,103
,0,0,
|0,0,0,0,0,0,0,0,0,0,0,0,0,0,0,0,0,128
,116,114,87,0,0,0,148,135,120,0,133,0,0,124,0,0,99,0
,60,0,0,149,0,0,76,65,0,0,0,0,0,0,127,112,58,102
,110,0,135,0,0,132,0,132,54,0,0,0,0,0,0,0,143,114
,112,0,0,87,133,0,90,115,0,118,112,88,67,117,96,0,0,67
,142,0,
|0,0,0,0,0,0,0,0,0,0,0,0,0,0,0,0,0,0
,77,103,127,125,0,119,106,0,0,0,0,115,58,107,107,0,106,0
,132,0,0,98,123,0,71,115,0,0,0,0,0,0,0,147,0,142
,0,87,0,84,0,0,115,111,0,0,0,0,0,0,0,0,0,69
,0,0,64,0,134,61,89,0,0,0,0,64,101,95,0,95,0,0
,0,0,
|0,0,0,0,0,0,0,0,0,0,0,0,0,0,0,0,0,0
,0,54,90,0,0,0,0,110,0,0,0,0,0,84,0,0,0,128
,0,52,0,0,73,0,50,71,0,0,0,0,0,0,0,138,0,75
,0,0,0,106,0,111,0,0,110,62,0,0,0,0,0,0,0,0
,0,149,102,117,139,0,0,91,0,0,0,0,0,133,0,92,0,89
,0,0,
|0,0,0,0,0,0,0,0,0,0,0,0,0,0,0,0,0,0
,0,0,0,128,0,64,132,0,0,0,0,0,124,0,0,0,0,0
,0,0,74,129,119,0,144,0,0,0,0,0,0,0,0,102,116,0
,120,136,94,0,0,0,121,0,132,134,0,0,0,0,0,0,0,0
,0,64,141,0,63,98,98,0,0,0,140,87,0,0,0,0,0,138
,116,0,
|0,0,0,0,0,0,0,0,0,0,0,0,0,0,0,0,0,0
,0,0,0,0,0,0,0,0,0,0,0,0,0,0,56,50,0,74
,0,0,0,0,111,83,0,121,0,0,0,0,0,0,0,0,135,86
,51,60,76,0,0,0,140,0,59,114,0,0,0,0,0,0,0,0
,100,141,0,0,70,57,55,113,0,0,136,112,0,0,0,0,0,0
,0,0,
|0,0,0,0,0,0,0,0,0,0,0,0,0,0,0,0,0,0
,0,0,0,0,0,77,125,141,100,75,82,108,68,65,0,0,103,88
,0,0,96,0,93,51,0,0,0,0,0,0,0,0,0,0,0,0
,106,75,123,0,0,147,71,0,0,0,86,0,0,0,0,0,0,0
,0,0,0,119,136,113,140,0,0,0,0,75,107,0,0,98,0,70
,0,0,
|0,0,0,0,0,0,0,0,0,0,0,0,0,0,0,0,0,0
,0,0,0,0,0,99,118,149,0,0,56,143,0,136,0,0,0,0
,0,0,0,115,75,92,114,70,0,0,0,0,0,0,0,0,0,0
,145,0,105,0,0,0,142,138,0,107,75,0,0,0,0,0,0,0
,60,58,142,149,95,0,0,0,0,0,112,63,106,0,0,63,0,136
,0,0,
|0,0,0,0,0,0,0,0,0,0,0,0,0,0,0,0,0,0
,0,0,0,0,0,0,56,138,65,81,0,86,112,97,138,0,91,69
,144,0,107,55,0,96,65,116,0,0,0,0,0,0,0,0,0,0
,109,85,87,81,0,0,143,0,129,109,0,0,0,0,0,0,0,0
,0,0,0,144,145,102,135,69,0,0,0,89,130,0,0,0,0,0
,0,0,
|0,0,0,0,0,0,0,0,0,0,0,0,0,0,0,0,0,0
,0,0,0,0,0,0,0,0,0,0,51,105,71,0,0,142,0,126
,80,146,0,0,127,0,0,94,0,0,0,0,0,0,0,0,0,0
,101,50,0,84,0,107,0,144,104,119,0,0,0,0,0,0,0,0
,0,0,0,0,79,0,0,0,0,0,139,0,0,0,0,131,0,0
,0,0,
|0,0,0,0,0,0,0,0,0,0,0,0,0,0,0,0,0,0
,0,0,0,0,0,0,0,0,57,0,0,0,0,57,0,66,53,0
,0,76,70,0,0,0,0,0,0,0,0,0,0,0,0,0,0,56
,133,93,136,0,0,0,53,123,0,0,120,0,0,0,0,0,0,0
,0,0,108,68,0,94,0,65,0,0,0,0,95,0,0,0,0,0
,0,0,
|0,0,0,0,0,0,0,0,0,0,0,0,0,0,0,0,0,0
,0,0,0,0,0,0,0,0,0,0,0,67,0,115,120,124,0,0
,0,86,0,118,0,104,0,54,0,0,0,0,0,0,0,0,0,0
,0,0,0,0,0,134,81,137,73,102,76,0,0,0,0,0,0,0
,0,0,0,0,127,0,0,0,0,0,0,0,66,0,0,83,0,0
,0,0,
|0,0,0,0,0,0,0,0,0,0,0,0,0,0,0,0,0,0
,0,0,0,0,0,0,0,0,0,0,147,129,0,0,81,116,84,109
,0,0,0,0,0,0,0,0,0,0,0,0,0,0,0,0,0,0
,0,0,0,0,92,54,0,102,71,120,73,0,0,0,0,0,0,0
,0,0,0,0,88,0,0,68,0,0,0,0,80,0,0,59,0,0
,0,0,
|0,0,0,0,0,0,0,0,0,0,0,0,0,0,0,0,0,0
,0,0,0,0,0,0,0,0,0,0,0,0,144,0,121,0,51,114
,0,0,0,58,74,106,0,0,0,0,0,0,0,0,0,0,0,0
,0,0,0,0,0,110,93,0,0,133,0,0,0,0,0,0,0,0
,0,0,0,0,0,0,81,143,0,0,0,0,0,0,0,0,0,0
,0,0,
|0,0,0,0,0,0,0,0,0,0,0,0,0,0,0,0,0,0
,0,0,0,0,0,0,0,0,0,0,0,0,108,0,0,117,105,85
,62,0,0,0,87,62,100,62,0,0,0,0,0,0,0,0,0,0
,0,0,0,0,0,0,101,76,148,0,0,0,0,0,0,0,0,0
,0,0,0,0,0,123,0,133,0,0,0,124,91,0,0,0,0,0
,0,0,
|0,0,0,0,0,0,0,0,0,0,0,0,0,0,0,0,0,0
,0,0,0,0,0,0,0,0,0,0,0,0,0,0,52,65,0,0
,0,137,72,64,0,0,0,97,0,0,0,0,0,0,0,0,0,0
,0,0,0,0,0,100,82,51,0,91,0,0,0,0,0,0,0,0
,0,0,0,0,0,81,87,115,0,0,0,0,0,0,0,0,0,0
,0,0,
|0,0,0,0,0,0,0,0,0,0,0,0,0,0,0,0,0,0
,0,0,0,0,0,0,0,0,0,0,0,0,0,0,0,113,86,0
,0,0,0,118,82,0,115,144,0,0,0,0,0,0,0,0,0,0
,0,0,0,0,103,0,77,54,73,0,0,0,0,0,0,0,0,0
,0,0,0,0,122,0,0,0,0,0,0,0,67,0,0,0,0,0
,0,0,
|0,0,0,0,0,0,0,0,0,0,0,0,0,0,0,0,0,0
,0,0,0,0,0,0,0,0,0,0,0,0,0,0,0,103,0,0
,0,143,109,66,0,77,98,0,0,0,0,0,0,0,0,0,0,0
,0,0,0,0,102,140,0,98,0,76,127,0,0,0,0,0,0,0
,0,0,0,0,123,129,108,101,0,0,0,0,98,0,0,0,0,0
,0,0,
|0,0,0,0,0,0,0,0,0,0,0,0,0,0,0,0,0,0
,0,0,0,0,0,0,0,0,0,0,0,0,0,0,0,0,0,81
,0,122,100,122,101,0,0,0,0,0,0,0,0,0,0,0,0,0
,0,0,0,0,0,59,0,0,120,55,0,0,0,0,0,0,0,0
,0,0,0,0,0,0,0,0,0,0,0,0,79,0,0,0,0,0
,0,0,
|0,0,0,0,0,0,0,0,0,0,0,0,0,0,0,0,0,0
,0,0,0,0,0,0,0,0,0,0,0,0,0,0,0,0,0,0
,0,148,0,116,0,125,140,0,0,0,0,0,0,0,0,0,0,0
,0,0,0,0,0,0,0,72,0,83,110,0,0,0,0,0,0,0
,0,0,0,0,0,77,0,113,0,0,0,0,54,0,0,0,0,0
,0,0,
|0,0,0,0,0,0,0,0,0,0,0,0,0,0,0,0,0,0
,0,0,0,0,0,0,0,0,0,0,0,0,0,0,0,0,0,0
,143,102,136,53,104,123,61,0,0,0,0,0,0,0,0,0,0,0
,0,0,0,0,0,0,0,112,0,56,89,0,0,0,0,0,0,0
,0,0,0,0,0,0,96,146,0,0,0,0,104,0,0,0,0,0
,0,0,
|0,0,0,0,0,0,0,0,0,0,0,0,0,0,0,0,0,0
,0,0,0,0,0,0,0,0,0,0,0,0,0,0,0,0,0,0
,0,0,59,51,0,100,0,55,0,0,0,0,0,0,0,0,0,0
,0,0,0,0,0,0,0,0,147,101,115,0,0,0,0,0,0,0
,0,0,0,0,0,118,0,129,0,0,0,0,86,0,0,0,0,0
,0,0,
|0,0,0,0,0,0,0,0,0,0,0,0,0,0,0,0,0,0
,0,0,0,0,0,0,0,0,0,0,0,0,0,0,0,0,0,0
,0,0,0,98,0,0,85,62,0,0,0,0,0,0,0,0,0,0
,0,0,0,0,0,0,0,0,0,0,0,0,0,0,0,0,0,0
,0,0,0,0,0,0,139,92,0,0,0,0,0,0,0,0,0,0
,0,0,
|0,0,0,0,0,0,0,0,0,0,0,0,0,0,0,0,0,0
,0,0,0,0,0,0,0,0,0,0,0,0,0,0,0,0,0,0
,0,0,0,140,0,0,52,54,0,0,0,0,0,0,0,0,0,0
,0,0,0,0,0,0,0,0,0,0,111,0,0,0,0,0,0,0
,0,0,0,0,0,0,0,146,0,0,0,0,0,0,0,0,0,0
,0,0,
|0,0,0,0,0,0,0,0,0,0,0,0,0,0,0,0,0,0
,0,0,0,0,0,0,0,0,0,0,0,0,0,0,0,0,0,0
,0,0,0,0,89,115,51,0,0,0,0,0,0,0,0,0,0,0
,0,0,0,0,0,0,0,0,0,0,0,0,0,0,0,0,0,0
,0,0,0,0,0,0,0,0,0,0,0,0,91,0,0,0,0,0
,0,0,
|0,0,0,0,0,0,0,0,0,0,0,0,0,0,0,0,0,0
,0,0,0,0,0,0,0,0,0,0,0,0,0,0,0,0,0,0
,0,0,0,0,0,0,135,99,0,0,0,0,0,0,0,0,0,0
,0,0,0,0,0,0,0,0,0,0,0,0,0,0,0,0,0,0
,0,0,0,0,0,0,0,0,0,0,0,0,149,0,0,0,0,0
,0,0,
|0,0,0,0,0,0,0,0,0,0,0,0,0,0,0,0,0,0
,0,0,0,0,0,0,0,0,0,0,0,0,0,0,0,0,0,0
,0,0,0,0,0,0,82,88,0,0,0,0,0,0,0,0,0,0
,0,0,0,0,0,0,0,0,0,0,0,0,0,0,0,0,0,0
,0,0,0,0,0,0,129,0,0,0,0,0,58,0,0,0,0,0
,0,0,
|0,0,0,0,0,0,0,0,0,0,0,0,0,0,0,0,0,0,0,0,0,0,0,0,0,0,0,0,0,0,0,0,0,0,0,0,0
,0,0,0,0,0,0,0,0,0,0,0,0,0,0,0,0,0,0,0,0,0,0,0,0,0,0,0,0,0,0,0,0,0,0,0,0,0
,0,0,0,0,0,0,0,0,0,0,0,0,0,0,0,0,0,0,
|0,0,0,0,0,0,0,0,0,0,0,0,0,0,0,0,0,0,0,0,0,0,0,0,0,0,0,0,0,0,0,0,0,0,0,0,0
,0,0,0,0,0,0,0,0,0,0,0,0,0,0,0,0,0,0,0,0,0,0,0,0,0,0,0,0,0,0,0,0,0,0,0,0,0
,0,0,0,0,0,0,0,0,0,0,0,0,0,0,0,0,0,0,
|0,0,0,136,117,0,57,0,0,0,0,110,81,97,109,125,81,0
,113,0,73,0,0,116,63,62,54,0,109,0,134,0,106,0,0,138
,0,104,53,0,0,0,0,84,0,62,105,0,119,0,116,86,0,0
,0,144,0,0,0,0,131,78,0,0,0,123,120,136,66,118,84,137
,82,94,87,106,97,64,88,70,0,0,0,0,0,0,0,0,0,0
,0,0,
|0,0,0,0,0,0,0,140,134,0,0,0,0,84,114,0,0,0
,0,0,145,62,0,108,98,102,139,0,0,122,0,83,0,0,81,0
,66,0,0,80,125,91,0,105,0,0,0,122,0,113,138,75,0,94
,122,0,70,139,0,104,111,0,131,138,0,0,0,85,97,63,0,0
,0,106,0,0,0,59,84,114,0,0,0,80,0,0,74,75,0,136
,57,0,
|0,0,0,0,0,0,0,0,67,96,96,137,89,0,0,0,0,134
,135,131,0,0,52,0,83,0,0,0,0,99,0,133,57,0,88,0
,126,85,90,0,0,0,142,0,0,0,0,0,129,98,88,59,131,62
,56,0,125,0,62,58,142,145,130,0,0,0,0,103,0,0,0,0
,120,0,0,120,67,137,0,103,0,59,55,61,0,0,0,0,70,0
,0,0,
|0,0,0,0,0,0,0,0,0,0,0,100,94,108,0,0,89,145
,78,0,128,0,141,0,85,0,0,86,100,63,0,139,88,0,71,0
,80,89,69,117,0,97,136,0,0,0,0,0,0,59,0,0,0,71
,90,0,90,0,0,0,0,71,0,137,68,0,0,0,0,0,0,146
,0,127,68,0,0,0,105,0,0,106,77,0,91,0,121,0,104,86
,0,0,
|0,0,0,0,0,0,0,0,0,0,0,0,0,0,0,0,92,0
,0,0,79,0,82,90,0,0,87,88,82,0,0,68,95,0,143,0
,0,92,0,0,71,0,96,0,0,0,0,0,0,0,0,0,0,0
,0,0,0,134,0,0,0,148,95,0,128,0,0,0,0,0,0,0
,143,0,0,132,144,138,0,0,0,0,82,133,64,104,0,0,0,115
,50,0,
|0,0,0,0,0,0,0,0,0,0,0,0,0,0,0,0,0,0
,0,116,0,0,0,95,103,0,130,52,0,0,67,0,0,0,135,0
,0,0,112,104,0,0,0,0,0,0,0,0,0,0,0,94,135,0
,0,142,0,134,138,61,0,148,87,0,0,0,0,0,0,0,0,0
,0,0,129,0,0,0,0,0,0,0,0,67,0,0,0,119,0,0
,0,0,
|0,0,0,0,0,0,0,0,0,0,0,0,0,0,0,0,0,0
,0,109,0,0,84,0,0,0,86,0,0,0,0,0,72,80,0,0
,0,0,142,107,71,0,118,58,0,0,0,0,0,0,0,113,144,143
,141,69,0,132,0,0,0,66,142,0,0,0,0,0,0,0,0,0
,103,85,0,0,141,0,0,0,0,0,0,0,95,0,0,0,0,0
,75,0,
|0,0,0,0,0,0,0,0,0,0,0,0,0,0,0,0,0,0
,0,0,126,0,0,0,61,0,70,122,0,0,0,0,0,0,0,92
,0,0,0,114,126,0,0,76,0,0,0,0,0,0,0,0,121,148
,0,0,129,0,126,0,135,0,109,0,84,0,0,0,0,0,0,0
,124,0,0,0,77,123,62,95,0,0,0,75,118,0,0,0,0,0
,78,0,
|0,0,0,0,0,0,0,0,0,0,0,0,0,0,0,0,0,0
,0,0,0,133,0,51,0,0,0,0,0,52,143,101,131,0,0,81
,60,0,137,55,0,118,93,0,0,0,0,0,0,0,0,0,0,146
,98,96,0,0,91,141,135,0,0,0,114,0,0,0,0,0,0,0
,0,0,0,0,0,148,142,0,0,0,144,131,0,0,0,148,0,132
,0,0,
|0,0,0,0,0,0,0,0,0,0,0,0,0,0,0,0,0,0
,0,0,0,0,0,0,0,0,59,0,63,69,69,56,140,92,78,122
,0,0,106,90,0,90,85,134,0,0,0,0,0,0,0,0,0,0
,54,0,0,0,119,131,0,64,0,91,0,0,0,0,0,0,0,0
,0,0,113,0,92,146,107,0,0,0,0,0,0,0,0,0,0,61
,0,0,
|0,0,0,0,0,0,0,0,0,0,0,0,0,0,0,0,0,0
,0,0,0,0,0,0,0,0,140,86,112,0,0,0,55,0,0,69
,0,0,79,94,0,0,0,0,0,0,0,0,0,0,0,0,0,0
,0,0,116,0,0,87,0,66,0,51,0,0,0,0,0,0,0,0
,0,0,0,53,104,0,0,0,0,0,0,120,56,0,0,0,0,0
,0,0,
|0,0,0,0,0,0,0,0,0,0,0,0,0,0,0,0,0,0
,0,0,0,0,0,0,0,0,50,0,52,128,130,52,0,0,0,82
,129,118,0,71,135,68,71,106,0,0,0,0,0,0,0,0,0,0
,0,0,0,0,96,0,0,121,0,0,0,0,0,0,0,0,0,0
,0,0,0,0,55,143,0,115,0,0,0,66,0,0,0,0,0,0
,0,0,
|0,0,0,0,0,0,0,0,0,0,0,0,0,0,0,0,0,0
,0,0,0,0,0,0,0,0,0,0,65,0,145,108,0,138,81,0
,60,108,55,61,126,0,86,0,0,0,0,0,0,0,0,0,0,0
,0,0,0,116,0,112,0,0,123,0,0,0,0,0,0,0,0,0
,0,0,0,0,80,131,0,0,0,0,0,58,0,0,0,0,0,0
,0,0,
|0,0,0,0,0,0,0,0,0,0,0,0,0,0,0,0,0,0
,0,0,0,0,0,0,0,0,61,56,81,0,0,118,0,51,0,0
,131,141,0,0,55,91,0,75,0,0,0,0,0,0,0,0,0,0
,0,0,0,0,0,0,0,99,135,129,0,0,0,0,0,0,0,0
,0,0,0,0,0,59,105,0,0,0,0,134,147,0,0,0,0,0
,0,0,
|0,0,0,0,0,0,0,0,0,0,0,0,0,0,0,0,0,0
,0,0,0,0,0,0,0,0,0,0,0,0,0,0,0,0,0,0
,0,53,0,0,0,53,0,87,0,0,0,0,0,0,0,0,0,0
,0,0,0,0,0,105,53,82,0,0,111,0,0,0,0,0,0,0
,0,0,0,0,0,0,0,136,0,0,0,0,0,0,0,0,0,0
,0,0,
|0,0,0,0,0,0,0,0,0,0,0,0,0,0,0,0,0,0
,0,0,0,0,0,0,0,0,0,0,0,0,0,0,0,0,104,144
,0,95,0,0,137,0,0,0,0,0,0,0,0,0,0,0,0,0
,0,0,0,0,0,0,0,113,89,120,0,0,0,0,0,0,0,0
,0,0,0,0,0,106,68,0,0,0,0,0,79,0,0,0,0,0
,0,0,
|0,0,0,0,0,0,0,0,0,0,0,0,0,0,0,0,0,0
,0,0,0,0,0,0,0,0,0,0,0,0,0,0,0,0,129,0
,0,0,0,0,0,0,88,137,0,0,0,0,0,0,0,0,0,0
,0,0,0,0,0,0,0,0,0,0,0,0,0,0,0,0,0,0
,0,0,0,0,0,108,114,0,0,0,0,0,0,0,0,0,0,0
,0,0,
|0,0,0,0,0,0,0,0,0,0,0,0,0,0,0,0,0,0
,0,0,0,0,0,0,0,0,0,0,0,0,0,0,0,0,0,0
,94,0,0,115,0,0,83,143,0,0,0,0,0,0,0,0,0,0
,0,0,0,0,0,0,0,0,115,0,0,0,0,0,0,0,0,0
,0,0,0,0,0,0,119,0,0,0,0,0,77,0,0,0,0,0
,0,0,
|0,0,0,0,0,0,0,0,0,0,0,0,0,0,0,0,0,0
,0,0,0,0,0,0,0,0,0,0,0,0,0,0,0,0,0,0
,0,0,123,128,113,0,0,56,0,0,0,0,0,0,0,0,0,0
,0,0,0,0,0,0,0,0,0,0,0,0,0,0,0,0,0,0
,0,0,0,0,0,0,0,0,0,0,0,0,53,0,0,0,0,0
,0,0,
|0,0,0,0,0,0,0,0,0,0,0,0,0,0,0,0,0,0
,0,0,0,0,0,0,0,0,0,0,0,0,0,0,0,0,0,0
,0,127,0,114,68,95,0,138,0,0,0,0,0,0,0,0,0,0
,0,0,0,0,0,0,0,0,0,0,102,0,0,0,0,0,0,0
,0,0,0,0,0,0,66,75,0,0,0,0,0,0,0,0,0,0
,0,0,
|0,0,0,0,0,0,0,0,0,0,0,0,0,0,0,0,0,0
,0,0,0,0,0,0,0,0,0,0,0,0,0,0,0,0,0,0
,0,0,0,77,0,0,55,97,0,0,0,0,0,0,0,0,0,0
,0,0,0,0,0,0,0,0,0,0,0,0,0,0,0,0,0,0
,0,0,0,0,0,0,122,0,0,0,0,0,118,0,0,0,0,0
,0,0,
|0,0,0,0,0,0,73,109,0,146,98,101,0,131,0,91,0,88
,0,138,62,0,0,0,0,0,0,0,53,115,0,0,110,81,0,0
,0,0,94,134,111,0,0,79,0,61,0,139,126,0,0,0,69,60
,106,105,0,0,0,79,130,0,0,0,109,0,117,0,68,0,0,145
,59,61,108,0,0,0,120,140,112,112,111,0,106,94,0,0,0,117
,0,0,
|0,0,0,0,0,0,0,75,0,117,70,73,0,0,0,128,65,0
,117,59,0,87,114,0,130,94,0,119,0,115,0,0,0,141,51,0
,0,106,0,145,139,65,115,72,0,117,0,130,105,139,0,0,0,0
,97,0,0,0,0,0,142,0,133,146,0,0,0,0,57,141,0,0
,135,112,116,114,50,125,100,83,0,0,77,55,79,129,0,115,0,142
,50,0,
|0,0,0,0,0,0,0,0,0,0,0,115,104,146,82,0,0,0
,110,93,0,0,126,77,0,0,106,71,0,0,0,70,96,0,76,0
,126,0,54,145,0,0,59,0,0,0,0,0,50,0,68,67,0,0
,84,53,133,0,0,0,99,0,0,134,137,0,0,0,142,0,0,0
,0,137,92,100,0,0,127,73,0,0,64,56,0,0,0,0,86,80
,0,0,
|0,0,0,0,0,0,0,0,0,0,0,63,0,114,102,0,0,0
,0,87,132,113,0,138,0,88,51,0,66,0,0,0,0,0,0,0
,122,0,0,147,94,143,0,113,0,0,0,0,69,122,84,79,70,0
,0,92,0,94,115,0,119,0,0,0,0,0,0,0,0,0,105,0
,122,128,107,0,0,0,0,0,0,0,83,0,110,102,82,115,72,0
,0,0,
|0,0,0,0,0,0,0,0,0,0,0,0,0,0,0,126,68,113
,0,0,146,0,0,0,0,79,0,0,119,0,0,81,118,120,0,125
,119,146,0,118,109,0,111,0,0,0,0,0,0,64,0,74,0,0
,0,137,0,0,97,121,0,121,0,129,60,0,0,0,0,0,0,0
,141,0,60,115,0,0,0,0,0,0,104,0,128,0,0,0,0,0
,132,0,
|0,0,0,0,0,0,0,0,0,0,0,0,0,0,0,0,0,0
,0,142,0,0,59,61,82,0,0,116,0,0,109,66,126,0,109,0
,0,118,0,114,135,125,121,104,0,0,0,0,0,148,0,0,0,149
,143,0,0,75,0,143,83,0,53,65,137,0,0,0,0,0,0,0
,0,0,141,107,0,64,78,0,0,0,118,0,134,0,147,55,0,0
,0,0,
|0,0,0,0,0,0,0,0,0,0,0,0,0,0,0,0,0,0
,94,0,0,128,84,0,0,66,0,0,51,105,0,99,94,0,142,0
,61,122,98,0,0,0,0,0,0,0,0,0,0,0,70,71,78,0
,145,0,71,0,125,137,142,104,121,0,64,0,0,0,0,0,0,0
,84,0,92,61,142,0,53,148,0,0,134,62,79,0,147,93,0,0
,132,0,
|0,0,0,0,0,0,0,0,0,0,0,0,0,0,0,0,0,0
,0,0,0,0,0,0,0,100,0,128,112,133,0,101,125,0,106,102
,0,66,109,0,0,110,135,147,0,0,0,0,0,0,0,0,0,88
,141,99,129,0,0,133,62,0,96,0,0,0,0,0,0,0,0,0
,0,0,0,135,0,122,0,126,0,0,0,0,86,0,0,125,0,56
,0,0,
|0,0,0,0,0,0,0,0,0,0,0,0,0,0,0,0,0,0
,0,0,0,0,0,135,122,122,121,0,129,0,113,77,117,0,0,0
,82,52,0,120,131,127,0,0,0,0,0,0,0,0,0,0,0,144
,0,103,0,102,0,0,0,101,132,0,76,0,0,0,0,0,0,0
,0,0,72,66,146,84,0,80,0,0,92,148,60,0,0,108,0,88
,0,0,
|0,0,0,0,0,0,0,0,0,0,0,0,0,0,0,0,0,0
,0,0,0,0,0,0,0,0,0,106,0,0,0,0,100,0,0,0
,0,74,0,78,132,0,0,0,0,0,0,0,0,0,0,0,0,0
,0,0,0,142,98,126,0,0,81,147,0,0,0,0,0,0,0,0
,0,0,0,142,0,0,0,0,0,0,0,0,91,0,0,137,0,0
,0,0,
|0,0,0,0,0,0,0,0,0,0,0,0,0,0,0,0,0,0
,0,0,0,0,0,0,0,0,142,121,80,97,105,0,0,0,0,66
,55,60,0,98,0,100,0,138,0,0,0,0,0,0,0,0,0,0
,0,0,0,65,0,0,71,0,60,116,0,0,0,0,0,0,0,0
,0,0,0,0,0,0,53,69,0,0,0,0,0,0,0,110,0,0
,0,0,
|0,0,0,0,0,0,0,0,0,0,0,0,0,0,0,0,0,0
,0,0,0,0,0,0,0,0,0,0,0,0,0,0,0,0,97,0
,94,0,0,0,137,73,69,0,0,0,0,0,0,0,0,0,0,0
,0,0,0,0,0,121,0,118,0,0,0,0,0,0,0,0,0,0
,0,0,0,0,0,0,57,97,0,0,0,0,132,0,0,0,0,0
,0,0,
|0,0,0,0,0,0,0,0,0,0,0,0,0,0,0,0,0,0
,0,0,0,0,0,0,0,0,0,0,0,0,0,0,0,0,0,0
,0,0,0,0,51,0,82,74,0,0,0,0,0,0,0,0,0,0
,0,0,0,0,0,0,0,0,0,100,72,0,0,0,0,0,0,0
,0,0,0,0,0,0,0,138,0,0,0,0,0,0,0,0,0,0
,0,0,
|0,0,0,0,0,0,0,0,0,0,0,0,0,0,0,0,0,0
,0,0,0,0,0,0,0,0,0,0,0,0,0,0,0,0,0,0
,0,0,0,0,0,0,0,147,0,0,0,0,0,0,0,0,0,0
,0,0,0,0,0,0,0,0,0,0,0,0,0,0,0,0,0,0
,0,0,0,0,0,0,0,130,0,0,0,0,0,0,0,0,0,0
,0,0,
|0,0,0,0,0,0,0,0,0,0,0,0,0,0,0,0,0,0
,0,0,0,0,0,0,0,0,0,0,0,0,0,0,0,0,0,0
,0,0,0,0,0,0,129,68,0,0,0,0,0,0,0,0,0,0
,0,0,0,0,0,0,0,0,0,0,0,0,0,0,0,0,0,0
,0,0,0,0,0,0,0,0,0,0,0,0,0,0,0,0,0,0
,0,0,
|0,0,0,0,0,0,0,116,0,50,70,73,0,0,75,139,0,127
,0,0,0,145,0,0,0,65,0,0,138,0,0,0,0,0,0,141
,0,0,0,83,0,0,0,0,0,0,65,113,0,70,98,0,144,0
,0,149,0,0,81,0,124,0,0,147,110,0,149,63,0,0,0,74
,100,123,0,0,0,0,149,147,0,0,0,0,125,0,64,0,73,0
,57,0,
|0,0,0,0,0,0,0,0,0,0,0,0,0,0,0,0,0,0
,105,0,148,0,0,0,0,0,0,0,0,108,55,112,0,0,0,88
,104,113,0,84,110,0,80,0,0,0,0,0,0,0,0,62,0,0
,130,0,72,0,0,0,0,125,0,0,87,0,0,0,0,0,0,120
,0,119,143,0,104,129,0,0,0,0,147,0,135,77,140,50,0,0
,110,0,
|0,0,0,0,0,0,0,0,0,0,0,0,0,0,0,0,0,0
,0,0,0,0,0,0,0,79,0,0,0,0,0,0,120,62,0,57
,0,0,0,103,92,0,98,0,0,0,0,0,0,0,0,0,0,101
,118,103,0,118,79,136,0,0,0,51,0,0,0,0,0,0,0,0
,0,0,0,0,0,51,149,0,0,0,0,0,0,0,0,0,0,81
,0,0,
|0,0,0,0,0,0,0,0,0,0,0,0,0,0,0,0,0,0
,0,0,0,0,0,0,0,0,0,0,0,0,99,0,102,0,57,52
,119,0,0,0,96,0,0,0,0,0,0,0,0,0,0,0,0,0
,0,0,0,0,0,103,123,0,0,130,56,0,0,0,0,0,0,0
,0,0,0,0,0,0,0,70,0,0,0,0,0,0,0,0,0,0
,0,0,
|0,0,0,0,0,0,0,0,0,0,0,0,0,0,0,0,0,0
,0,0,0,0,0,0,0,0,0,0,0,0,0,0,0,0,0,0
,0,0,0,0,0,0,110,0,0,0,0,0,0,0,0,0,0,0
,0,0,0,0,0,0,0,0,0,0,0,0,0,0,0,0,0,0
,0,0,0,0,0,0,93,0,0,0,0,0,0,0,0,0,0,0
,0,0,
|0,0,0,0,0,0,0,0,0,0,0,0,0,0,0,0,0,0
,0,82,0,0,0,0,0,100,0,119,0,0,0,77,136,88,0,57
,0,0,0,0,0,87,0,131,0,0,0,0,0,0,0,0,92,0
,0,84,73,0,0,0,0,0,0,137,0,0,0,0,0,0,0,0
,122,0,0,123,0,0,0,113,0,0,0,55,0,0,0,0,0,0
,0,0,
|0,0,0,0,0,0,0,0,0,0,0,0,0,0,0,0,0,0
,0,0,108,74,60,74,0,136,0,0,132,131,0,0,0,117,63,0
,0,119,0,0,63,0,0,0,0,0,0,0,0,0,0,109,118,0
,134,75,128,81,0,115,0,92,0,87,65,0,0,0,0,0,0,0
,116,78,59,0,103,0,51,111,0,0,86,79,98,0,0,137,0,0
,125,0,
|0,0,0,0,0,0,0,0,0,0,0,0,0,0,0,0,0,0
,0,0,0,0,0,0,0,0,0,0,0,0,0,0,98,0,0,82
,100,0,0,125,0,75,0,0,0,0,0,0,0,0,0,0,0,0
,0,0,0,0,0,0,140,90,0,0,115,0,0,0,0,0,0,0
,0,0,0,0,0,0,146,103,0,0,0,0,147,0,0,0,0,0
,0,0,
|0,0,0,0,0,0,0,0,0,0,0,0,0,0,108,0,0,0
,127,111,0,136,0,95,78,0,50,0,0,0,51,0,0,127,106,0
,0,0,0,52,0,138,60,86,0,0,0,0,131,82,0,134,0,0
,0,80,138,0,0,129,88,83,0,0,0,0,0,0,0,65,99,0
,0,83,0,89,96,0,0,129,0,0,0,81,134,0,79,0,0,124
,0,0,
|0,0,0,0,0,0,0,0,0,0,0,0,0,0,0,0,0,0
,0,0,0,0,0,0,0,0,51,79,63,0,0,62,0,0,94,0
,0,111,83,84,67,0,0,78,0,0,0,0,0,0,0,0,0,0
,0,0,0,0,0,103,0,0,89,124,0,0,0,0,0,0,0,0
,0,0,0,116,0,0,123,0,0,0,0,140,0,0,0,0,0,0
,0,0,
|0,0,0,0,0,0,0,0,0,0,0,0,0,0,0,0,0,0
,0,0,88,0,142,0,0,134,0,57,67,0,52,0,94,78,0,71
,0,136,0,0,136,140,86,53,0,0,0,0,0,0,0,0,0,0
,0,111,59,69,136,110,0,118,143,0,0,0,0,0,0,0,0,0
,125,130,119,100,103,113,0,91,0,0,66,0,0,0,0,83,0,0
,0,0,
|0,0,0,0,0,0,0,0,0,0,0,0,0,0,0,0,0,0,0,0,0,0,0,0,0,0,0,0,0,0,0,0,0,0,0,0,0
,0,0,0,0,0,0,0,0,0,0,0,0,0,0,0,0,0,0,0,0,0,0,0,0,0,0,0,0,0,0,0,0,0,0,0,0,0
,0,0,0,0,0,0,0,0,0,0,0,0,0,0,0,0,0,0|];
max_time=5000;
